ilp_joint/output/absorption_ilp.lp
Maximize
  2.8047225534506273e-04 Z_233_0_0 + 0.00208917110455601 Z_233_0_1
   + 0.757061822339814 Z_233_0_2 + 2.4732480535203771e-04 Z_233_0_3
   + 0.140321209494933 Z_233_0_4
Subject To
 constraint1_2330: Z_233_0_0 + Z_233_0_1 + Z_233_0_2 + Z_233_0_3
   + Z_233_0_4 <= 1
 constraint2_2330: Z_233_0_0 <= 1
 constraint2_2331: Z_233_0_1 <= 1
 constraint2_2332: Z_233_0_2 <= 1
 constraint2_2333: Z_233_0_3 <= 1
Bounds
Binaries
 Z_233_0_0 Z_233_0_1 Z_233_0_2 Z_233_0_3 Z_233_0_4
End
