ilp_joint/output/absorption_ilp.mps
NAME absorption_srl_ilp
* Max problem is converted into Min one
ROWS
 N  OBJ
 L  constraint1_2330
 L  constraint2_2330
 L  constraint2_2331
 L  constraint2_2332
 L  constraint2_2333
COLUMNS
    MARKER    'MARKER'                 'INTORG'
    Z_233_0_0  OBJ       -2.8047225534506273e-04
    Z_233_0_0  constraint1_2330  1
    Z_233_0_0  constraint2_2330  1
    Z_233_0_1  OBJ       -2.0891711045560126e-03
    Z_233_0_1  constraint1_2330  1
    Z_233_0_1  constraint2_2331  1
    Z_233_0_2  OBJ       -7.5706182233981401e-01
    Z_233_0_2  constraint1_2330  1
    Z_233_0_2  constraint2_2332  1
    Z_233_0_3  OBJ       -2.4732480535203771e-04
    Z_233_0_3  constraint1_2330  1
    Z_233_0_3  constraint2_2333  1
    Z_233_0_4  OBJ       -1.4032120949493304e-01
    Z_233_0_4  constraint1_2330  1
    MARKER    'MARKER'                 'INTEND'
RHS
    RHS1      constraint1_2330  1
    RHS1      constraint2_2330  1
    RHS1      constraint2_2331  1
    RHS1      constraint2_2332  1
    RHS1      constraint2_2333  1
BOUNDS
 UP BND1      Z_233_0_0  1
 UP BND1      Z_233_0_1  1
 UP BND1      Z_233_0_2  1
 UP BND1      Z_233_0_3  1
 UP BND1      Z_233_0_4  1
ENDATA
